NAME: PointSet_Angle_10_8
TYPE: TSP
COMMENT: Points chosen discrete uniformly at random out of ${0, \ldots, 500}^2$.
DIMENSION: 10
EDGE_WEIGHT_TYPE: EUC_2D
NODE_COORD_SECTION
1 325 252
2 15 431
3 456 406
4 169 488
5 333 84
6 241 375
7 319 494
8 381 248
9 264 94
10 210 365
EOF
